NAME : mr60
COMMENT : 60-city problem (DISC)
TYPE : TSP
DIMENSION : 60
EDGE_WEIGHT_TYPE : EUC_2D
NODE_COORD_SECTION
1 31 69
2 19 73
3 33 99
4 67 40
5 57 52
6 40 93
7 38 39
8 2 45
9 18 45
10 13 27
11 70 93
12 88 52
13 34 67
14 100 84
15 14 1
16 51 59
17 29 49
18 23 28
19 51 28
20 64 81
21 64 45
22 9 33
23 59 63
24 84 61
25 30 50
26 99 72
27 55 60
28 96 48
29 36 42
30 52 76
31 99 3
32 21 40
33 98 51
34 4 75
35 2 50
36 20 85
37 2 1
38 45 17
39 66 61
40 72 65
41 26 66
42 77 55
43 97 19
44 54 17
45 44 22
46 50 47
47 77 4
48 33 33
49 17 38
50 62 92
51 64 23
52 79 16
53 93 67
54 84 84
55 97 24
56 56 49
57 3 78
58 15 96
59 48 20
60 69 100
EOF
